1454
1   1   0    86   0 73 72 12 28 26 0
1   2   0    95   0 41 56 4 67 23 21 0
1   3   0    86   0 15 43 14 38 5 99 0
1   4   0    77   0 93 85 57 2 0
1   5   0    99   0 95 92 44 86 61 96 0
1   6   0    90   0 59 16 100 87 0
1   7   0    94   0 58 53 97 13 94 0
1   8   0    95   0 9 65 35 71 79 3 0
2   1   0    82   0 32 66 90 63 18 52 0
2   2   0    100  0 11 19 47 49 36 64 0
2   3   0    88   0 7 46 17 8 48 82 62 0
2   4   0    78   0 69 27 50 10 31 0
2   5   0    98   0 34 80 24 29 77 76 68 78 0
2   6   0    98   0 89 74 75 22 39 25 55 0
2   7   0    100  0 54 40 37 98 6 42 91 84 83 60 45 88 0
2   8   0    92   0 70 30 20 1 51 81 33 0